p cnf 166 932
45 65 67 0
56 62 0
36 86 0
64 100 0
53 57 68 128 0
76 83 88 132 0
60 90 91 93 0
71 79 97 103 136 0
81 104 139 0
48 66 0
40 43 47 0
35 94 98 149 0
33 34 72 154 0
28 29 31 74 101 0
27 42 46 120 123 0
39 50 156 0
24 26 0
69 78 0
80 105 0
49 106 108 111 0
113 115 0
85 116 118 0
119 122 0
52 125 126 0
54 58 127 129 131 0
25 84 133 0
75 77 134 135 0
82 137 138 140 0
107 109 112 141 0
114 143 144 0
146 148 160 0
37 87 95 150 151 162 0
153 155 164 0
73 121 124 0
59 130 157 0
158 159 0
63 161 0
117 152 0
99 163 0
102 165 166 0
23 30 0
-56 -110 0
-86 -110 0
-100 -110 0
-56 -86 0
-56 -100 0
-86 -100 0
-71 -128 0
-81 -128 0
-47 -128 0
-71 -81 0
-47 -71 0
-47 -81 0
-120 -149 0
-39 -149 0
-26 -149 0
-39 -120 0
-26 -120 0
-26 -39 0
-77 -89 0
-110 -128 0
-110 -149 0
-128 -149 0
-56 -71 0
-56 -120 0
-56 -77 0
-71 -120 0
-71 -77 0
-77 -120 0
-81 -86 0
-39 -86 0
-86 -89 0
-39 -81 0
-81 -89 0
-39 -89 0
-47 -100 0
-26 -100 0
-26 -47 0
-22 -45 0
-45 -62 0
-45 -51 0
-22 -62 0
-22 -51 0
-51 -62 0
-60 -132 0
-97 -132 0
-132 -145 0
-60 -97 0
-60 -145 0
-97 -145 0
-101 -154 0
-123 -154 0
-69 -154 0
-101 -123 0
-69 -101 0
-69 -123 0
-21 -106 0
-45 -132 0
-45 -154 0
-45 -106 0
-132 -154 0
-106 -132 0
-106 -154 0
-22 -60 0
-22 -101 0
-21 -22 0
-60 -101 0
-21 -60 0
-21 -101 0
-62 -97 0
-62 -123 0
-97 -123 0
-51 -145 0
-51 -69 0
-69 -145 0
-20 -67 0
-20 -64 0
-19 -20 0
-64 -67 0
-19 -67 0
-19 -64 0
-57 -83 0
-43 -57 0
-57 -147 0
-43 -83 0
-83 -147 0
-43 -147 0
-58 -125 0
-107 -125 0
-125 -143 0
-58 -107 0
-58 -143 0
-107 -143 0
-151 -160 0
-157 -160 0
-158 -160 0
-151 -157 0
-151 -158 0
-157 -158 0
-20 -57 0
-20 -125 0
-20 -160 0
-57 -125 0
-57 -160 0
-125 -160 0
-67 -83 0
-58 -67 0
-67 -151 0
-58 -83 0
-83 -151 0
-58 -151 0
-43 -64 0
-64 -107 0
-64 -157 0
-43 -107 0
-43 -157 0
-107 -157 0
-19 -147 0
-19 -143 0
-19 -158 0
-143 -147 0
-147 -158 0
-143 -158 0
-79 -139 0
-66 -79 0
-66 -139 0
-108 -113 0
-18 -108 0
-108 -116 0
-17 -108 0
-18 -113 0
-113 -116 0
-17 -113 0
-18 -116 0
-17 -18 0
-17 -116 0
-75 -127 0
-92 -127 0
-127 -137 0
-127 -141 0
-75 -92 0
-75 -137 0
-75 -141 0
-92 -137 0
-92 -141 0
-137 -141 0
-32 -87 0
-73 -87 0
-41 -87 0
-59 -87 0
-32 -73 0
-32 -41 0
-32 -59 0
-41 -73 0
-59 -73 0
-41 -59 0
-163 -165 0
-23 -163 0
-23 -165 0
-108 -127 0
-87 -108 0
-87 -127 0
-79 -113 0
-75 -79 0
-32 -79 0
-79 -163 0
-75 -113 0
-32 -113 0
-113 -163 0
-32 -75 0
-75 -163 0
-32 -163 0
-18 -139 0
-92 -139 0
-73 -139 0
-139 -165 0
-18 -92 0
-18 -73 0
-18 -165 0
-73 -92 0
-92 -165 0
-73 -165 0
-66 -116 0
-66 -137 0
-41 -66 0
-23 -66 0
-116 -137 0
-41 -116 0
-23 -116 0
-41 -137 0
-23 -137 0
-23 -41 0
-17 -141 0
-17 -59 0
-59 -141 0
-53 -90 0
-40 -53 0
-16 -53 0
-40 -90 0
-16 -90 0
-16 -40 0
-31 -98 0
-24 -98 0
-78 -98 0
-24 -31 0
-31 -78 0
-24 -78 0
-15 -80 0
-14 -80 0
-80 -119 0
-14 -15 0
-15 -119 0
-14 -119 0
-84 -126 0
-109 -126 0
-114 -126 0
-84 -109 0
-84 -114 0
-109 -114 0
-53 -98 0
-53 -80 0
-53 -126 0
-80 -98 0
-98 -126 0
-80 -126 0
-31 -90 0
-15 -90 0
-84 -90 0
-15 -31 0
-31 -84 0
-15 -84 0
-24 -40 0
-14 -40 0
-40 -109 0
-14 -24 0
-24 -109 0
-14 -109 0
-16 -78 0
-16 -119 0
-16 -114 0
-78 -119 0
-78 -114 0
-114 -119 0
-88 -91 0
-88 -103 0
-88 -104 0
-48 -88 0
-91 -103 0
-91 -104 0
-48 -91 0
-103 -104 0
-48 -103 0
-48 -104 0
-29 -72 0
-46 -72 0
-50 -72 0
-13 -72 0
-29 -46 0
-29 -50 0
-13 -29 0
-46 -50 0
-13 -46 0
-13 -50 0
-12 -111 0
-111 -115 0
-55 -111 0
-85 -111 0
-111 -122 0
-12 -115 0
-12 -55 0
-12 -85 0
-12 -122 0
-55 -115 0
-85 -115 0
-115 -122 0
-55 -85 0
-55 -122 0
-85 -122 0
-25 -129 0
-129 -134 0
-70 -129 0
-82 -129 0
-129 -144 0
-25 -134 0
-25 -70 0
-25 -82 0
-25 -144 0
-70 -134 0
-82 -134 0
-134 -144 0
-70 -82 0
-70 -144 0
-82 -144 0
-150 -153 0
-11 -150 0
-121 -150 0
-38 -150 0
-150 -159 0
-11 -153 0
-121 -153 0
-38 -153 0
-153 -159 0
-11 -121 0
-11 -38 0
-11 -159 0
-38 -121 0
-121 -159 0
-38 -159 0
-99 -102 0
-30 -99 0
-30 -102 0
-72 -88 0
-88 -111 0
-88 -129 0
-88 -150 0
-72 -111 0
-72 -129 0
-72 -150 0
-111 -129 0
-111 -150 0
-129 -150 0
-29 -91 0
-12 -91 0
-25 -91 0
-91 -153 0
-12 -29 0
-25 -29 0
-29 -153 0
-12 -25 0
-12 -153 0
-25 -153 0
-46 -103 0
-103 -115 0
-103 -134 0
-11 -103 0
-99 -103 0
-46 -115 0
-46 -134 0
-11 -46 0
-46 -99 0
-115 -134 0
-11 -115 0
-99 -115 0
-11 -134 0
-99 -134 0
-11 -99 0
-50 -104 0
-55 -104 0
-70 -104 0
-104 -121 0
-102 -104 0
-50 -55 0
-50 -70 0
-50 -121 0
-50 -102 0
-55 -70 0
-55 -121 0
-55 -102 0
-70 -121 0
-70 -102 0
-102 -121 0
-13 -48 0
-48 -85 0
-48 -82 0
-38 -48 0
-30 -48 0
-13 -85 0
-13 -82 0
-13 -38 0
-13 -30 0
-82 -85 0
-38 -85 0
-30 -85 0
-38 -82 0
-30 -82 0
-30 -38 0
-122 -144 0
-122 -159 0
-144 -159 0
-10 -65 0
-9 -10 0
-10 -36 0
-8 -10 0
-9 -65 0
-36 -65 0
-8 -65 0
-9 -36 0
-8 -9 0
-8 -36 0
-34 -94 0
-28 -94 0
-94 -156 0
-7 -94 0
-28 -34 0
-34 -156 0
-7 -34 0
-28 -156 0
-7 -28 0
-7 -156 0
-49 -105 0
-44 -105 0
-61 -105 0
-105 -118 0
-6 -105 0
-44 -49 0
-49 -61 0
-49 -118 0
-6 -49 0
-44 -61 0
-44 -118 0
-6 -44 0
-61 -118 0
-6 -61 0
-6 -118 0
-52 -54 0
-52 -133 0
-52 -96 0
-52 -138 0
-52 -112 0
-54 -133 0
-54 -96 0
-54 -138 0
-54 -112 0
-96 -133 0
-133 -138 0
-112 -133 0
-96 -138 0
-96 -112 0
-112 -138 0
-37 -146 0
-146 -155 0
-124 -146 0
-5 -146 0
-130 -146 0
-37 -155 0
-37 -124 0
-5 -37 0
-37 -130 0
-124 -155 0
-5 -155 0
-130 -155 0
-5 -124 0
-124 -130 0
-5 -130 0
-4 -63 0
-4 -117 0
-63 -117 0
-10 -94 0
-10 -105 0
-10 -52 0
-10 -146 0
-4 -10 0
-94 -105 0
-52 -94 0
-94 -146 0
-4 -94 0
-52 -105 0
-105 -146 0
-4 -105 0
-52 -146 0
-4 -52 0
-4 -146 0
-34 -65 0
-49 -65 0
-54 -65 0
-37 -65 0
-63 -65 0
-34 -49 0
-34 -54 0
-34 -37 0
-34 -63 0
-49 -54 0
-37 -49 0
-49 -63 0
-37 -54 0
-54 -63 0
-37 -63 0
-9 -28 0
-9 -44 0
-9 -133 0
-9 -155 0
-9 -117 0
-28 -44 0
-28 -133 0
-28 -155 0
-28 -117 0
-44 -133 0
-44 -155 0
-44 -117 0
-133 -155 0
-117 -133 0
-117 -155 0
-36 -156 0
-36 -61 0
-36 -96 0
-36 -124 0
-61 -156 0
-96 -156 0
-124 -156 0
-61 -96 0
-61 -124 0
-96 -124 0
-7 -8 0
-8 -118 0
-8 -138 0
-5 -8 0
-7 -118 0
-7 -138 0
-5 -7 0
-118 -138 0
-5 -118 0
-5 -138 0
-6 -112 0
-6 -130 0
-112 -130 0
-68 -76 0
-68 -93 0
-68 -136 0
-76 -93 0
-76 -136 0
-93 -136 0
-33 -35 0
-35 -74 0
-35 -42 0
-33 -74 0
-33 -42 0
-42 -74 0
-148 -162 0
-148 -164 0
-162 -164 0
-142 -161 0
-142 -152 0
-152 -161 0
-35 -68 0
-68 -148 0
-68 -142 0
-35 -148 0
-35 -142 0
-142 -148 0
-33 -76 0
-76 -162 0
-76 -161 0
-33 -162 0
-33 -161 0
-161 -162 0
-74 -93 0
-93 -164 0
-93 -152 0
-74 -164 0
-74 -152 0
-152 -164 0
-42 -136 0
-3 -27 0
-131 -135 0
-131 -140 0
-135 -140 0
-2 -95 0
-1 -95 0
-1 -2 0
-95 -131 0
-27 -135 0
-2 -27 0
-2 -135 0
-3 -140 0
-1 -3 0
-1 -140 0
-110 -128 0
-110 -149 0
-128 -149 0
-22 -45 0
-45 -132 0
-45 -60 0
-45 -154 0
-45 -101 0
-22 -132 0
-22 -60 0
-22 -154 0
-22 -101 0
-60 -132 0
-132 -154 0
-101 -132 0
-60 -154 0
-60 -101 0
-101 -154 0
-20 -67 0
-20 -57 0
-20 -83 0
-57 -67 0
-67 -83 0
-57 -83 0
-53 -90 0
-53 -98 0
-31 -53 0
-90 -98 0
-31 -90 0
-31 -98 0
-88 -91 0
-72 -88 0
-29 -88 0
-72 -91 0
-29 -91 0
-29 -72 0
-10 -65 0
-9 -10 0
-10 -94 0
-10 -34 0
-10 -28 0
-9 -65 0
-65 -94 0
-34 -65 0
-28 -65 0
-9 -94 0
-9 -34 0
-9 -28 0
-34 -94 0
-28 -94 0
-28 -34 0
-68 -76 0
-68 -93 0
-35 -68 0
-33 -68 0
-68 -74 0
-76 -93 0
-35 -76 0
-33 -76 0
-74 -76 0
-35 -93 0
-33 -93 0
-74 -93 0
-33 -35 0
-35 -74 0
-33 -74 0
-56 -86 0
-56 -71 0
-56 -81 0
-56 -120 0
-39 -56 0
-71 -86 0
-81 -86 0
-86 -120 0
-39 -86 0
-71 -81 0
-71 -120 0
-39 -71 0
-81 -120 0
-39 -81 0
-39 -120 0
-62 -97 0
-62 -123 0
-97 -123 0
-79 -139 0
-66 -79 0
-66 -139 0
-103 -104 0
-48 -103 0
-46 -103 0
-50 -103 0
-13 -103 0
-48 -104 0
-46 -104 0
-50 -104 0
-13 -104 0
-46 -48 0
-48 -50 0
-13 -48 0
-46 -50 0
-13 -46 0
-13 -50 0
-8 -36 0
-36 -156 0
-7 -36 0
-8 -156 0
-7 -8 0
-7 -156 0
-42 -136 0
-3 -27 0
-47 -100 0
-26 -100 0
-26 -47 0
-51 -145 0
-51 -69 0
-69 -145 0
-19 -64 0
-43 -64 0
-64 -147 0
-19 -43 0
-19 -147 0
-43 -147 0
-16 -40 0
-24 -40 0
-40 -78 0
-16 -24 0
-16 -78 0
-24 -78 0
-21 -106 0
-58 -125 0
-125 -160 0
-125 -151 0
-58 -160 0
-58 -151 0
-151 -160 0
-108 -127 0
-87 -108 0
-87 -127 0
-15 -80 0
-80 -126 0
-80 -84 0
-15 -126 0
-15 -84 0
-84 -126 0
-12 -111 0
-111 -129 0
-25 -111 0
-111 -150 0
-111 -153 0
-12 -129 0
-12 -25 0
-12 -150 0
-12 -153 0
-25 -129 0
-129 -150 0
-129 -153 0
-25 -150 0
-25 -153 0
-150 -153 0
-49 -105 0
-44 -105 0
-52 -105 0
-54 -105 0
-105 -133 0
-105 -146 0
-37 -105 0
-105 -155 0
-44 -49 0
-49 -52 0
-49 -54 0
-49 -133 0
-49 -146 0
-37 -49 0
-49 -155 0
-44 -52 0
-44 -54 0
-44 -133 0
-44 -146 0
-37 -44 0
-44 -155 0
-52 -54 0
-52 -133 0
-52 -146 0
-37 -52 0
-52 -155 0
-54 -133 0
-54 -146 0
-37 -54 0
-54 -155 0
-133 -146 0
-37 -133 0
-133 -155 0
-37 -146 0
-146 -155 0
-37 -155 0
-148 -162 0
-148 -164 0
-162 -164 0
-95 -131 0
-77 -89 0
-18 -113 0
-113 -116 0
-75 -113 0
-92 -113 0
-113 -137 0
-32 -113 0
-73 -113 0
-41 -113 0
-18 -116 0
-18 -75 0
-18 -92 0
-18 -137 0
-18 -32 0
-18 -73 0
-18 -41 0
-75 -116 0
-92 -116 0
-116 -137 0
-32 -116 0
-73 -116 0
-41 -116 0
-75 -92 0
-75 -137 0
-32 -75 0
-73 -75 0
-41 -75 0
-92 -137 0
-32 -92 0
-73 -92 0
-41 -92 0
-32 -137 0
-73 -137 0
-41 -137 0
-32 -73 0
-32 -41 0
-41 -73 0
-55 -115 0
-85 -115 0
-115 -134 0
-70 -115 0
-82 -115 0
-11 -115 0
-115 -121 0
-38 -115 0
-55 -85 0
-55 -134 0
-55 -70 0
-55 -82 0
-11 -55 0
-55 -121 0
-38 -55 0
-85 -134 0
-70 -85 0
-82 -85 0
-11 -85 0
-85 -121 0
-38 -85 0
-70 -134 0
-82 -134 0
-11 -134 0
-121 -134 0
-38 -134 0
-70 -82 0
-11 -70 0
-70 -121 0
-38 -70 0
-11 -82 0
-82 -121 0
-38 -82 0
-11 -121 0
-11 -38 0
-38 -121 0
-61 -118 0
-61 -96 0
-61 -138 0
-61 -124 0
-5 -61 0
-96 -118 0
-118 -138 0
-118 -124 0
-5 -118 0
-96 -138 0
-96 -124 0
-5 -96 0
-124 -138 0
-5 -138 0
-5 -124 0
-135 -140 0
-2 -135 0
-1 -135 0
-2 -140 0
-1 -140 0
-1 -2 0
-107 -143 0
-107 -157 0
-107 -158 0
-143 -157 0
-143 -158 0
-157 -158 0
-17 -141 0
-17 -59 0
-59 -141 0
-14 -119 0
-14 -109 0
-14 -114 0
-109 -119 0
-114 -119 0
-109 -114 0
-122 -144 0
-122 -159 0
-144 -159 0
-6 -112 0
-6 -130 0
-112 -130 0
-4 -63 0
-4 -117 0
-63 -117 0
-142 -161 0
-142 -152 0
-152 -161 0
-163 -165 0
-23 -163 0
-23 -165 0
-99 -102 0
-30 -99 0
-30 -102 0
